; benchmark generated from python API
(set-info :status unknown)
(declare-datatypes ((RealState 0)) (((RMk1 (rval1 Real)) (RMk2 (rval2 Real)))))
 (assert
 (forall ((|v9:0| Real) )(exists ((|v8:1_st| RealState) (val!1210 Real) )(forall ((|v7:2| Real) )(exists ((|v6:3_st| RealState) (val!1211 Real) )(forall ((|v5:4| Real) )(exists ((|v4:5_st| RealState) (val!1212 Real) )(forall ((|v3:6| Real) )(exists ((|v2:7_st| RealState) (val!1213 Real) )(forall ((|v1:8| Real) )(exists ((|v0:9_st| RealState) (val!1214 Real) )(let ((?x647 (- 3.0)))
 (let ((?x197 (+ (+ (* (- 7.0) (rval2 |v0:9_st|)) (* 20.0 (rval2 |v6:3_st|))) (* 4.0 (rval2 |v2:7_st|)))))
 (let (($x687 (and (<= ?x197 7.0) (<= (+ (+ |v7:2| (* 16.0 |v9:0|)) (* (- 17.0) (rval2 |v4:5_st|))) ?x647))))
 (let ((?x1078 (- 16.0)))
 (let ((?x317 (+ (+ (* (- 5.0) |v9:0|) (* ?x647 (rval2 |v6:3_st|))) (* 9.0 (rval2 |v0:9_st|)))))
 (let ((?x1138 (+ (+ (* (- 7.0) |v3:6|) (* (- 12.0) |v1:8|)) (* (- 1.0) |v9:0|))))
 (let (($x915 (<= (+ (+ (* (- 12.0) |v5:4|) (* 8.0 |v3:6|)) (* ?x1078 (rval2 |v4:5_st|))) 5.0)))
 (let (($x488 (and $x915 (<= (+ (+ (* 15.0 |v7:2|) |v7:2|) (* ?x647 (rval2 |v0:9_st|))) 11.0))))
 (let ((?x733 (- 5.0)))
 (let ((?x1094 (+ (+ (* (- 12.0) |v7:2|) (* (- 20.0) (rval2 |v4:5_st|))) (* (- 19.0) (rval2 |v4:5_st|)))))
 (let ((?x275 (- 7.0)))
 (let ((?x180 (+ (+ (* 16.0 (rval2 |v0:9_st|)) (* (- 17.0) |v5:4|)) (* (- 11.0) |v9:0|))))
 (let (($x980 (or (and (or (<= ?x180 ?x275) (<= ?x1094 ?x733)) $x488) (and (or (<= ?x1138 ?x647) (<= ?x317 ?x1078)) $x687))))
 (let ((?x1027 (+ (+ (* 15.0 |v7:2|) (* (- 18.0) (rval2 |v8:1_st|))) (* (- 15.0) |v7:2|))))
 (let (($x291 (<= (+ (+ (* ?x733 |v1:8|) (* 20.0 |v7:2|)) (* 7.0 (rval2 |v2:7_st|))) 11.0)))
 (let ((?x1280 (* 6.0 |v7:2|)))
 (let (($x845 (<= (+ (+ (* 0.0 (rval2 |v4:5_st|)) (* 18.0 (rval2 |v2:7_st|))) ?x1280) 0.0)))
 (let ((?x94 (+ (+ (* (- 2.0) (rval2 |v2:7_st|)) (* 2.0 |v9:0|)) (* 14.0 (rval2 |v2:7_st|)))))
 (let ((?x848 (* 15.0 |v7:2|)))
 (let (($x1074 (<= (+ (+ (* ?x275 (rval2 |v8:1_st|)) (* 17.0 (rval2 |v8:1_st|))) ?x848) 10.0)))
 (let (($x899 (<= (+ (+ (* ?x1078 (rval2 |v4:5_st|)) (* (- 13.0) |v3:6|)) (* 4.0 |v3:6|)) 17.0)))
 (let (($x213 (<= (+ (+ (* 13.0 |v5:4|) (* (- 12.0) |v7:2|)) (* 0.0 (rval2 |v8:1_st|))) 0.0)))
 (let (($x600 (<= (+ (+ (* 11.0 (rval2 |v4:5_st|)) (* 4.0 |v7:2|)) (* 16.0 |v7:2|)) 13.0)))
 (let (($x1386 (or (or (or $x600 $x213) (and $x899 $x1074)) (and (or (<= ?x94 10.0) $x845) (or $x291 (<= ?x1027 ?x647))))))
 (let ((?x563 (+ (+ (* 11.0 (rval2 |v2:7_st|)) (* (- 8.0) (rval2 |v6:3_st|))) (* (- 18.0) |v3:6|))))
 (let ((?x623 (+ (+ (* 19.0 (rval2 |v6:3_st|)) (* 8.0 (rval2 |v4:5_st|))) (* (- 4.0) (rval2 |v4:5_st|)))))
 (let ((?x93 (+ (+ (* (- 6.0) |v3:6|) (* (- 10.0) (rval2 |v0:9_st|))) (* 14.0 |v7:2|))))
 (let ((?x1031 (- 14.0)))
 (let ((?x334 (* 3.0 |v1:8|)))
 (let (($x1396 (<= (+ (+ (* 16.0 (rval2 |v6:3_st|)) (* 0.0 (rval2 |v6:3_st|))) ?x334) ?x1031)))
 (let (($x624 (and (and (and $x1396 (<= ?x93 ?x733)) (<= ?x623 16.0)) (<= ?x563 4.0))))
 (let ((?x601 (rval2 |v4:5_st|)))
 (let ((?x1411 (* 5.0 ?x601)))
 (let ((?x870 (- 12.0)))
 (let (($x12 (<= (+ (+ (* (- 15.0) ?x601) (* 20.0 |v1:8|)) (* 19.0 |v1:8|)) ?x870)))
 (let (($x431 (and $x12 (<= (+ (+ (* ?x1078 (rval2 |v2:7_st|)) (* (- 15.0) |v1:8|)) ?x1411) 9.0))))
 (let (($x1124 (<= (+ (+ (* (- 8.0) (rval2 |v0:9_st|)) (* (- 11.0) ?x601)) |v3:6|) 20.0)))
 (let ((?x896 (+ (+ (* 3.0 |v7:2|) (* (- 15.0) (rval2 |v6:3_st|))) (* (- 4.0) (rval2 |v8:1_st|)))))
 (let (($x592 (<= (+ (+ (* 20.0 ?x601) (* (- 13.0) |v3:6|)) (* (- 2.0) |v1:8|)) ?x733)))
 (let (($x750 (<= (+ (+ (* 14.0 |v1:8|) (* 11.0 ?x601)) (* (- 13.0) |v1:8|)) ?x1031)))
 (let (($x802 (or (and (<= (+ (+ |v7:2| (rval2 |v8:1_st|)) (* ?x1078 |v3:6|)) (- 15.0)) $x750) (and $x592 (<= (+ (+ (* 10.0 ?x601) ?x601) ?x848) (- 1.0))))))
 (let (($x1297 (and (and (or $x802 (and (and (<= ?x896 ?x647) $x1124) $x431)) $x624) (and $x1386 $x980))))
 (let (($x945 (not (= |v0:9_st| (RMk1 val!1214)))))
 (let (($x729 (not (= |v2:7_st| (RMk1 val!1213)))))
 (let (($x655 (not (= |v4:5_st| (RMk1 val!1212)))))
 (let (($x501 (not (= |v6:3_st| (RMk1 val!1211)))))
 (let (($x699 (not (= |v8:1_st| (RMk1 val!1210)))))
 (and $x699 $x501 $x655 $x729 $x945 $x1297)))))))))))))))))))))))))))))))))))))))))))))))))
 )
 )
 )
 )
 )
 )
 )
 )
 )
 )
(check-sat)
